p cnf 1077 1245
c ind 801 806 807 808 809 810 812 813 814 815 0
c ind 816 817 818 819 820 821 822 823 824 825 0
c ind 826 827 828 829 830 831 836 837 843 844 0
c ind 845 846 847 848 849 850 851 852 853 854 0
c ind 855 856 857 866 867 868 869 872 873 874 0
c ind 875 876 877 880 881 882 883 884 885 894 0
c ind 895 896 897 900 901 902 903 904 905 908 0
c ind 909 910 911 912 913 914 915 916 917 918 0
c ind 920 921 922 923 924 925 926 927 928 929 0
c ind 930 931 932 933 934 935 936 937 938 939 0
c ind 940 942 944 945 946 947 948 949 950 951 0
c ind 952 953 957 958 959 960 961 963 965 966 0
c ind 967 968 969 970 971 972 973 974 980 981 0
c ind 992 993 994 995 997 998 1000 1002 1006 1011 0
c ind 1012 1013 1014 1015 1016 1017 1018 1019 1020 1021 0
c ind 1022 1023 1024 1025 1026 1028 1030 1031 1033 1035 0
c ind 1036 1037 1039 1068 1075 1058 1044 1053 1062 1067 0
c ind 1074 802 803 1043 1052 1057 1048 1040 1061 1066 0
c ind 1047 1070 1073 1042 1038 1051 1056 1072 1060 1065 0
c ind 811 1050 1055 1069 1041 1046 1071 1059 1064 976 0
c ind 979 1049 1054 977 978 1045 1063 919 1034 805 0
c ind 804 1032 1007 1008 1009 1010 1027 1029 1004 1005 0
c ind 996 999 1001 1003 985 986 988 989 990 991 0
c ind 982 983 984 987 962 964 956 954 955 975 0
c ind 800 941 943 832 835 833 834 840 842 839 0
c ind 841 898 899 838 893 906 907 889 871 878 0
c ind 879 886 887 888 890 891 865 892 858 861 0
c ind 870 859 860 862 863 864 1 0
c ret 597 598 599 600 601 602 603 604 605 606 0
c ret 607 608 609 610 611 612 613 614 615 616 0
c ret 617 618 619 620 621 622 623 624 625 626 0
c ret 627 628 629 630 631 632 633 634 635 636 0
c ret 637 638 639 640 641 642 643 644 645 646 0
c ret 647 648 649 650 651 652 653 654 655 656 0
c ret 657 658 659 660 661 662 663 664 665 666 0
c ret 667 668 669 670 671 672 673 674 675 676 0
c ret 677 678 679 680 681 682 683 684 685 686 0
c ret 687 688 689 690 691 692 693 694 695 696 0
c ret 697 698 699 700 701 702 703 704 705 706 0
c ret 707 708 709 710 711 712 713 714 715 716 0
c ret 717 718 719 720 721 722 723 724 725 726 0
c ret 727 728 729 730 731 732 733 734 735 736 0
c ret 737 738 739 740 741 742 743 744 745 746 0
c ret 747 748 749 750 751 752 753 754 755 756 0
c ret 757 758 759 760 761 762 292 763 764 298 0
c ret 299 300 301 302 303 304 305 306 307 308 0
c ret 309 310 311 312 313 314 315 316 317 318 0
c ret 765 766 319 320 767 768 321 322 323 324 0
c ret 325 326 327 328 329 330 331 332 333 334 0
c ret 293 335 336 769 337 770 338 339 771 340 0
c ret 772 341 342 343 344 345 346 347 348 349 0
c ret 350 351 773 352 353 354 355 356 774 357 0
c ret 358 775 359 360 776 361 777 362 363 364 0
c ret 365 366 367 368 369 370 371 372 373 374 0
c ret 778 375 294 376 377 779 378 780 379 380 0
c ret 381 781 382 782 383 384 385 386 387 388 0
c ret 389 390 391 392 393 394 395 396 397 398 0
c ret 399 400 783 401 784 402 403 404 785 786 0
c ret 405 406 407 408 409 410 411 412 413 414 0
c ret 787 415 295 416 417 418 419 420 421 788 0
c ret 422 789 423 424 790 791 425 426 427 428 0
c ret 429 430 431 432 792 433 793 434 435 436 0
c ret 794 437 438 439 440 441 442 443 444 445 0
c ret 446 447 448 449 450 795 451 452 453 454 0
c ret 796 455 797 456 798 457 799 458 459 460 0
c ret 461 462 463 464 465 466 467 468 469 470 0
c ret 471 472 473 474 475 476 477 478 479 480 0
c ret 481 482 483 484 485 486 296 487 488 489 0
c ret 490 491 492 493 494 495 496 497 498 499 0
c ret 500 501 502 503 504 505 506 507 508 509 0
c ret 510 511 512 513 514 515 516 517 518 519 0
c ret 520 521 522 523 524 525 297 526 527 528 0
c ret 529 530 531 532 533 534 535 536 537 538 0
c ret 539 540 541 542 543 544 545 546 547 548 0
c ret 549 550 551 552 553 554 555 556 557 558 0
c ret 559 560 561 562 563 564 565 566 567 568 0
c ret 569 570 571 572 573 574 575 576 577 578 0
c ret 579 580 581 582 583 584 585 586 587 588 0
c ret 589 590 591 592 593 594 595 596 0
2 3 5 -286 0
2 5 285 -286 0
-2 286 0
-2 -5 0
-2 -3 -285 0
3 -4 0
3 533 -540 0
3 -533 -539 0
-3 4 -533 539 0
-3 4 533 540 0
4 524 0
4 -525 -531 0
4 525 -532 0
-4 -524 525 532 0
-4 -524 -525 531 0
5 6 -60 -104 -175 0
5 -6 60 -104 -175 0
-5 175 0
-5 6 60 0
-5 104 0
-5 -6 -60 0
6 -7 -15 0
6 -7 54 0
-6 7 0
-6 15 -54 0
7 8 -12 -13 -14 0
-7 -8 0
-7 14 0
-7 13 0
-7 12 0
-4 8 -9 0
8 -9 -11 0
-8 9 0
4 -8 11 0
-4 9 -10 0
-3 9 -10 0
-9 10 0
3 4 -9 0
10 524 0
10 -525 531 0
10 525 532 0
-10 -524 525 -532 0
-10 -524 -525 -531 0
-4 11 0
11 -533 539 0
11 533 540 0
4 -11 -533 -539 0
4 -11 533 -540 0
12 -553 -582 -669 0
-12 553 0
-12 582 0
-12 669 0
13 -611 -640 0
-13 611 0
-13 640 0
14 -698 -727 0
-14 698 0
-14 727 0
15 -16 -53 -799 0
15 16 -17 -53 0
-15 53 0
-15 -16 799 0
-15 16 17 0
16 519 -521 0
-16 -519 0
-16 521 0
17 -18 -798 0
17 18 -19 0
-17 -18 798 0
-17 18 19 0
18 491 -493 0
-18 -491 0
-18 493 0
19 20 45 52 0
19 20 45 -48 0
-19 -20 0
-19 -45 0
-19 48 -52 0
20 -43 292 -467 0
20 21 292 467 0
-20 -292 0
-20 43 -467 0
-20 -21 467 0
21 -22 -795 0
-21 795 0
-21 22 0
22 23 -27 0
-22 -23 0
-22 27 0
23 -24 -324 0
23 -26 -324 0
23 -25 -324 0
-23 324 0
-23 24 25 26 0
24 -325 326 327 0
-24 325 0
-24 -327 0
-24 -326 0
25 330 333 334 0
-25 -330 0
-25 -334 0
-25 -333 0
26 -330 331 332 0
-26 330 0
-26 -332 0
-26 -331 0
27 28 -35 0
27 28 38 -357 0
-27 -28 0
-27 35 -38 0
-27 35 357 0
28 -29 32 0
28 32 378 0
-28 -32 0
-28 29 -378 0
29 -31 381 384 0
29 -30 -31 381 0
-29 -381 0
-29 31 0
-29 30 -384 0
30 382 -383 0
-30 -382 0
-30 383 0
31 379 380 0
-31 -379 0
-31 -380 0
30 -31 32 33 -34 0
31 -32 0
-32 -33 0
-30 -32 0
-32 34 0
33 390 391 0
33 390 398 399 0
-33 -390 0
-33 -391 -398 0
-33 -391 -399 0
34 -378 381 384 -385 0
-34 385 0
-34 -384 0
-34 378 0
-34 -381 0
35 36 -350 0
35 37 -350 -356 0
-35 350 0
-35 -36 356 0
-35 -36 -37 0
36 351 352 353 0
-36 -351 0
-36 -353 0
-36 -352 0
37 354 -355 0
-37 -354 0
-37 355 0
38 39 42 0
-38 -39 0
-38 -42 0
39 -40 -41 -370 0
39 -40 -41 -371 0
-39 41 0
-39 40 0
-39 370 371 0
-36 37 40 -350 -357 0
36 -40 0
-37 -40 0
-40 350 0
-40 357 0
41 356 362 -363 0
-41 363 0
-41 -362 0
-41 -356 0
-40 42 356 -362 0
40 -42 0
-42 362 0
-42 -356 0
43 -44 796 0
21 43 44 0
-43 -44 -796 0
-21 -43 44 0
44 433 -435 0
-44 -433 0
-44 435 0
45 -46 -47 -477 0
45 -46 -47 -478 0
-45 47 0
-45 46 0
-45 477 478 0
46 480 481 482 483 0
-46 -483 0
-46 -482 0
-46 -480 0
-46 -481 0
47 -474 -475 -476 479 0
-47 476 0
-47 -479 0
-47 474 0
-47 475 0
43 48 -49 0
-43 -48 0
-48 49 0
49 50 51 0
-49 -50 0
-49 -51 0
50 446 447 448 0
-50 -446 0
-50 -448 0
-50 -447 0
51 454 -456 0
-51 -454 0
-51 456 0
51 52 -292 0
52 -292 797 0
-52 292 0
-51 -52 -797 0
53 -488 495 0
-53 488 0
-53 -495 0
54 -55 -488 0
17 19 54 0
17 54 -488 0
19 54 -55 0
-19 -54 488 0
-17 -54 55 0
55 57 495 0
55 -56 57 0
55 57 488 0
-55 -57 0
-55 56 -488 -495 0
56 -496 497 0
-56 496 0
-56 -497 0
57 58 -59 0
-57 -58 0
-57 59 0
58 499 -500 -501 502 0
-58 -499 0
-58 -502 0
-58 501 0
-58 500 0
59 -488 -495 -496 497 0
-59 496 0
-59 -497 0
-59 488 0
-59 495 0
60 93 98 -996 0
60 61 93 98 0
-60 -98 0
-60 -93 0
-60 -61 996 0
61 62 85 92 0
61 62 85 -88 0
-61 -62 0
-61 -85 0
-61 88 -92 0
62 -83 800 -975 0
62 63 800 975 0
-62 -800 0
-62 83 -975 0
-62 -63 975 0
63 -64 -1071 0
-63 1071 0
-63 64 0
64 -65 79 0
-64 65 0
-64 -79 0
65 -72 73 0
65 66 73 -865 0
-65 -73 0
-65 -66 72 0
-65 72 865 0
66 67 0
66 70 -864 0
66 70 870 0
-66 -67 -70 0
-66 -67 864 -870 0
67 -68 69 -858 -865 0
-67 68 0
-67 -69 0
-67 858 0
-67 865 0
68 859 860 861 0
-68 -859 0
-68 -861 0
-68 -860 0
69 862 -863 0
-69 -862 0
-69 863 0
70 71 864 870 -871 0
-70 -864 0
-70 -71 0
-70 871 0
-70 -870 0
71 878 879 0
-71 -878 0
-71 -879 0
68 72 -858 0
69 72 -858 -864 0
-72 858 0
-68 -72 864 0
-68 -69 -72 0
73 75 78 0
73 75 -77 0
73 74 75 0
-73 -75 0
-73 -74 77 -78 0
74 887 888 889 0
-74 -887 0
-74 -889 0
-74 -888 0
74 75 -886 0
75 76 -886 -892 0
-75 886 0
-74 -75 892 0
-74 -75 -76 0
76 890 -891 0
-76 -890 0
-76 891 0
77 898 899 0
77 898 906 907 0
-77 -898 0
-77 -899 -906 0
-77 -899 -907 0
76 78 -886 892 -893 0
-78 893 0
-76 -78 0
-78 886 0
-78 -892 0
79 -80 -832 0
79 -82 -832 0
79 -81 -832 0
-79 832 0
-79 80 81 82 0
80 -833 834 835 0
-80 833 0
-80 -835 0
-80 -834 0
81 838 841 842 0
-81 -838 0
-81 -842 0
-81 -841 0
82 -838 839 840 0
-82 838 0
-82 -840 0
-82 -839 0
83 -84 1072 0
63 83 84 0
-83 -84 -1072 0
-63 -83 84 0
84 941 -943 0
-84 -941 0
-84 943 0
85 -86 -87 -985 0
85 -86 -87 -986 0
-85 87 0
-85 86 0
-85 985 986 0
86 988 989 990 991 0
-86 -991 0
-86 -990 0
-86 -988 0
-86 -989 0
87 -982 -983 -984 987 0
-87 984 0
-87 -987 0
-87 982 0
-87 983 0
83 88 -89 0
-83 -88 0
-88 89 0
89 90 91 0
-89 -90 0
-89 -91 0
90 962 -964 0
-90 -962 0
-90 964 0
91 954 955 956 0
-91 -954 0
-91 -956 0
-91 -955 0
90 92 -800 0
92 -800 1073 0
-92 800 0
-90 -92 -1073 0
93 -94 -97 -1075 0
93 94 -95 -97 0
-93 97 0
-93 -94 1075 0
-93 94 95 0
94 1027 -1029 0
-94 -1027 0
-94 1029 0
95 -96 -1074 0
-61 95 96 0
-95 -96 1074 0
61 -95 96 0
96 999 -1001 0
-96 -999 0
-96 1001 0
97 -996 1003 0
-97 996 0
-97 -1003 0
-95 98 99 0
95 -98 0
-98 -99 0
99 101 1003 0
99 -100 101 0
99 101 996 0
-99 -101 0
-99 100 -996 -1003 0
100 -1004 1005 0
-100 1004 0
-100 -1005 0
101 102 -103 0
-101 -102 0
-101 103 0
102 1007 -1008 -1009 1010 0
-102 -1007 0
-102 -1010 0
-102 1009 0
-102 1008 0
103 -996 -1003 -1004 1005 0
-103 1004 0
-103 -1005 0
-103 996 0
-103 1003 0
104 105 -117 -136 0
104 -105 117 -136 0
-104 136 0
-104 105 117 0
-104 -105 -117 0
105 -106 -115 0
105 -115 996 0
-105 115 0
-105 106 -996 0
106 -107 108 0
106 -108 1058 0
106 108 109 0
-106 -108 -1058 0
-106 107 108 -109 0
107 -1003 -1004 1005 0
-107 1003 0
-107 1004 0
-107 -1005 0
-94 108 1003 0
-108 -1003 0
94 -108 0
-96 109 -1057 0
85 96 109 -110 0
96 -109 110 0
-96 -109 1057 0
-85 96 -109 0
110 113 114 0
-89 110 111 114 0
-110 -114 0
-110 -111 -113 0
89 -110 -113 0
-84 111 1055 0
84 111 112 0
-84 -111 -1055 0
84 -111 -112 0
-64 112 -1054 0
-112 1054 0
64 -112 0
90 113 -800 0
113 -800 1056 0
-113 800 0
-90 -113 -1056 0
-111 114 800 -975 0
112 114 800 975 0
-114 -800 0
111 -114 -975 0
-112 -114 975 0
109 110 115 0
101 115 116 0
109 115 116 0
101 110 115 0
-101 -109 -115 0
-110 -115 -116 0
85 116 996 0
-116 -996 0
-85 -116 0
117 -118 -130 0
117 -127 -130 0
117 -128 -130 0
-117 130 0
-117 118 127 128 0
118 121 -122 0
-49 118 119 -122 0
-118 122 0
-118 -119 -121 0
49 -118 -121 0
-44 119 779 0
44 119 120 0
-44 -119 -779 0
44 -119 -120 0
-22 120 -778 0
-120 778 0
22 -120 0
51 121 -292 0
121 -292 780 0
-121 292 0
-51 -121 -780 0
122 123 -124 0
-122 -123 0
-122 124 0
-119 123 292 -467 0
120 123 292 467 0
-123 -292 0
119 -123 -467 0
-120 -123 467 0
45 124 125 0
-45 -124 0
-124 -125 0
-18 125 -488 0
125 -126 -488 0
-125 488 0
18 -125 126 0
-16 57 126 495 0
-56 57 126 -495 0
-57 -126 0
56 -126 -495 0
16 -126 495 0
-16 -53 127 -782 0
-127 782 0
16 -127 0
53 -127 0
-18 128 -129 -781 0
-128 781 0
18 -128 0
-128 129 0
126 129 -488 0
-129 488 0
-126 -129 0
130 -131 133 0
-130 131 0
-130 -133 0
8 131 -132 0
-8 -131 0
-131 132 0
-13 -14 132 -582 -669 0
14 -132 0
-132 582 0
13 -132 0
-132 669 0
133 -134 -135 0
-133 134 0
-133 135 0
134 553 0
134 -554 -560 0
134 554 -561 0
-134 -553 554 561 0
-134 -553 -554 560 0
135 553 0
135 -554 560 0
135 554 561 0
-135 -553 554 -561 0
-135 -553 -554 -560 0
136 -137 147 166 0
136 137 -147 166 0
136 137 -147 157 0
136 -137 147 157 0
-136 -137 -147 0
-136 137 147 0
-136 -157 -166 0
-7 137 -138 0
-7 137 146 0
7 -137 0
-137 138 -146 0
16 -53 138 -139 0
-16 -53 138 -768 0
53 -138 0
16 -138 139 0
-16 -138 768 0
-18 139 -767 0
18 139 -140 0
-18 -139 767 0
18 -139 140 0
45 140 141 145 0
45 140 141 -144 0
-45 -140 0
-140 -141 0
-140 144 -145 0
141 142 -292 766 0
51 141 142 -292 0
-141 292 0
-141 -142 0
-51 -141 -766 0
-49 142 143 0
49 -142 0
-142 -143 0
22 44 143 0
-44 143 765 0
44 143 297 0
-44 -143 -765 0
-22 44 -143 -297 0
-22 44 144 -297 0
-22 144 -297 467 0
22 -144 0
-144 297 0
-44 -144 -467 0
145 292 765 0
145 292 467 0
44 145 292 0
-145 -292 0
-44 -145 -467 -765 0
-55 140 146 0
139 146 -488 0
-55 146 -488 0
139 140 146 0
55 -139 -146 0
-140 -146 488 0
147 154 156 -996 0
147 148 154 156 0
-147 -156 0
-147 -154 0
-147 -148 996 0
85 148 149 153 0
85 148 149 -152 0
-85 -148 0
-148 -149 0
-148 152 -153 0
149 150 -800 1042 0
90 149 150 -800 0
-149 800 0
-149 -150 0
-90 -149 -1042 0
-89 150 151 0
89 -150 0
-150 -151 0
64 84 151 0
-84 151 1041 0
84 151 805 0
-84 -151 -1041 0
-64 84 -151 -805 0
-64 84 152 -805 0
-64 152 -805 975 0
64 -152 0
-152 805 0
-84 -152 -975 0
153 800 1041 0
153 800 975 0
84 153 800 0
-153 -800 0
-84 -153 -975 -1041 0
94 -97 154 -155 0
-94 -97 154 -1044 0
97 -154 0
94 -154 155 0
-94 -154 1044 0
-96 155 -1043 0
96 -148 155 0
-96 -155 1043 0
96 148 -155 0
99 -155 156 0
-99 -156 0
155 -156 0
-7 157 -158 0
-7 157 165 0
7 -157 0
-157 158 -165 0
16 -53 158 -159 0
-16 -53 158 -772 0
53 -158 0
16 -158 159 0
-16 -158 772 0
-18 159 -771 0
18 159 -160 0
-18 -159 771 0
18 -159 160 0
45 160 161 164 0
45 160 161 -163 0
-45 -160 0
-160 -161 0
-160 163 -164 0
161 -162 292 -467 0
22 161 292 467 0
-161 -292 0
-161 162 -467 0
-22 -161 467 0
-44 162 769 0
22 44 162 0
-44 -162 -769 0
-22 44 -162 0
-49 162 163 0
49 -163 0
-162 -163 0
51 164 -292 0
164 -292 770 0
-164 292 0
-51 -164 -770 0
-55 160 165 0
159 165 -488 0
-55 165 -488 0
159 160 165 0
55 -159 -165 0
-160 -165 488 0
166 172 174 -996 0
166 167 172 174 0
-166 -174 0
-166 -172 0
-166 -167 996 0
85 167 168 171 0
85 167 168 -170 0
-85 -167 0
-167 -168 0
-167 170 -171 0
168 -169 800 -975 0
64 168 800 975 0
-168 -800 0
-168 169 -975 0
-64 -168 975 0
-84 169 1045 0
64 84 169 0
-84 -169 -1045 0
-64 84 -169 0
-89 169 170 0
89 -170 0
-169 -170 0
90 171 -800 0
171 -800 1046 0
-171 800 0
-90 -171 -1046 0
94 -97 172 -173 0
-94 -97 172 -1048 0
97 -172 0
94 -172 173 0
-94 -172 1048 0
-96 173 -1047 0
96 -167 173 0
-96 -173 1047 0
96 167 -173 0
99 -173 174 0
-99 -174 0
173 -174 0
175 -176 -196 -236 0
175 -186 -196 -236 0
-175 236 0
-175 196 0
-175 176 186 0
-7 176 -177 0
-7 176 185 0
7 -176 0
-176 177 -185 0
16 -53 177 -178 0
-16 -53 177 -777 0
53 -177 0
16 -177 178 0
-16 -177 777 0
-18 178 -776 0
18 178 -179 0
-18 -178 776 0
18 -178 179 0
45 179 180 184 0
45 179 180 -183 0
-45 -179 0
-179 -180 0
-179 183 -184 0
180 -182 292 -467 0
180 181 292 467 0
-180 -292 0
-180 182 -467 0
-180 -181 467 0
-22 181 -773 0
-181 773 0
22 -181 0
-44 182 774 0
44 181 182 0
-44 -182 -774 0
44 -181 -182 0
-49 182 183 0
49 -183 0
-182 -183 0
51 184 -292 0
184 -292 775 0
-184 292 0
-51 -184 -775 0
-55 179 185 0
178 185 -488 0
-55 185 -488 0
178 179 185 0
55 -178 -185 0
-179 -185 488 0
186 193 195 -996 0
186 187 193 195 0
-186 -195 0
-186 -193 0
-186 -187 996 0
85 187 188 192 0
85 187 188 -191 0
-85 -187 0
-187 -188 0
-187 191 -192 0
188 -190 800 -975 0
188 189 800 975 0
-188 -800 0
-188 190 -975 0
-188 -189 975 0
-64 189 -1049 0
-189 1049 0
64 -189 0
-84 190 1050 0
84 189 190 0
-84 -190 -1050 0
84 -189 -190 0
-89 190 191 0
89 -191 0
-190 -191 0
90 192 -800 0
192 -800 1051 0
-192 800 0
-90 -192 -1051 0
94 -97 193 -194 0
-94 -97 193 -1053 0
97 -193 0
94 -193 194 0
-94 -193 1053 0
-96 194 -1052 0
96 -187 194 0
-96 -194 1052 0
96 187 -194 0
99 -194 195 0
-99 -195 0
194 -195 0
196 206 215 0
196 197 226 0
196 206 226 0
196 197 215 0
-196 -197 -206 0
-196 -215 -226 0
197 -198 -205 0
197 -205 996 0
-197 205 0
-197 198 -996 0
-107 108 198 0
-108 198 1067 0
108 198 199 0
-108 -198 -1067 0
107 108 -198 -199 0
-96 199 -1066 0
85 96 199 -200 0
96 -199 200 0
-96 -199 1066 0
-85 96 -199 0
200 203 204 0
-89 200 201 203 0
-200 -203 0
89 -200 -204 0
-200 -201 -204 0
-84 201 1064 0
84 201 202 0
-84 -201 -1064 0
84 -201 -202 0
-64 202 -1063 0
-202 1063 0
64 -202 0
-201 203 800 -975 0
202 203 800 975 0
-203 -800 0
201 -203 -975 0
-202 -203 975 0
90 204 -800 0
204 -800 1065 0
-204 800 0
-90 -204 -1065 0
199 200 205 0
101 116 205 0
116 199 205 0
101 200 205 0
-116 -200 -205 0
-101 -199 -205 0
-130 206 -207 0
-130 206 -214 0
-130 206 -213 0
130 -206 0
-206 207 213 214 0
207 210 -211 0
-49 207 208 -211 0
-207 211 0
-207 -208 -210 0
49 -207 -210 0
-44 208 788 0
44 208 209 0
-44 -208 -788 0
44 -208 -209 0
-22 209 -787 0
-209 787 0
22 -209 0
51 210 -292 0
210 -292 789 0
-210 292 0
-51 -210 -789 0
-124 211 212 0
124 -211 0
-211 -212 0
-208 212 292 -467 0
209 212 292 467 0
-212 -292 0
208 -212 -467 0
-209 -212 467 0
-16 -53 213 -791 0
-213 791 0
16 -213 0
53 -213 0
-18 -129 214 -790 0
-214 790 0
18 -214 0
129 -214 0
215 216 225 996 0
215 -222 225 -996 0
-215 -225 0
-215 -216 996 0
-215 222 -996 0
85 216 217 221 0
85 216 217 -220 0
-85 -216 0
-216 -217 0
-216 220 -221 0
217 -219 800 -975 0
217 218 800 975 0
-217 -800 0
-217 219 -975 0
-217 -218 975 0
-64 218 -804 0
-218 804 0
64 -218 0
-84 219 1059 0
84 218 219 0
-84 -219 -1059 0
84 -218 -219 0
-89 219 220 0
89 -220 0
-219 -220 0
90 221 -800 0
221 -800 1060 0
-221 800 0
-90 -221 -1060 0
108 222 223 0
222 224 1062 0
108 222 224 0
222 223 1062 0
-108 -222 -1062 0
-222 -223 -224 0
223 -1003 -1005 0
94 223 1003 0
223 -1003 1004 0
-94 -223 1003 0
-223 -1003 -1004 1005 0
-96 224 -1061 0
96 -216 224 0
-96 -224 1061 0
96 216 -224 0
-101 -224 225 0
101 -225 0
224 -225 0
-131 226 227 235 -553 0
131 -226 0
-226 -235 0
-226 553 0
-226 -227 0
227 229 488 0
18 227 228 229 0
-227 -229 0
-227 -228 -488 0
-18 -227 -488 0
-16 228 495 -786 0
16 -228 0
-228 786 0
-228 -495 0
45 229 230 234 0
45 229 230 -233 0
-45 -229 0
-229 -230 0
-229 233 -234 0
230 -232 292 -467 0
230 231 292 467 0
-230 -292 0
-230 232 -467 0
-230 -231 467 0
-22 231 -296 0
-231 296 0
22 -231 0
-44 232 783 0
44 231 232 0
-44 -232 -783 0
44 -231 -232 0
-49 232 233 0
49 -233 0
-232 -233 0
51 234 -292 0
234 -292 784 0
-234 292 0
-51 -234 -784 0
-125 -126 228 235 0
-125 228 235 785 0
125 -235 0
-228 -235 0
126 -235 -785 0
-215 236 -237 -284 0
-226 236 -237 -284 0
-236 284 0
-236 237 0
215 226 -236 0
237 238 -239 254 -263 0
237 238 239 -254 -263 0
-237 263 0
-237 -239 -254 0
-237 -238 0
-237 239 254 0
157 166 238 0
-157 -238 0
-166 -238 0
239 -244 292 0
50 239 240 -244 0
-239 244 0
-239 -240 -292 0
-50 -239 -292 0
240 241 -411 0
240 -243 411 764 0
-240 -241 -411 0
-240 243 411 0
-240 411 -764 0
-27 241 -242 0
27 -241 0
-241 242 0
242 -756 -758 0
23 242 756 0
242 -756 -762 0
-23 -242 756 0
-242 -756 758 762 0
-27 243 -756 758 0
-243 756 0
-243 -758 0
27 -243 0
240 244 246 -250 0
244 -245 246 -250 0
-244 250 0
-244 -246 0
-240 -244 245 0
245 467 468 0
-245 -467 0
-245 -468 0
-240 246 247 0
241 246 -248 0
-240 241 246 0
246 247 -248 0
240 -246 248 0
-241 -246 -247 0
247 469 470 471 0
-247 -469 0
-247 -471 0
-247 -470 0
248 -249 292 0
-248 -292 0
-248 249 0
-247 249 467 468 0
247 -249 0
-249 -468 0
-249 -467 0
250 -251 -553 0
-250 553 0
-250 251 0
9 251 -252 0
11 251 -252 -524 0
-251 252 0
-9 -11 -251 0
-9 -251 524 0
-132 252 -253 0
132 -252 0
-252 253 0
45 59 253 0
45 58 253 0
-45 -253 0
-58 -59 -253 0
254 255 -257 0
254 261 262 0
254 -257 261 0
-254 257 -262 0
-254 -255 -261 0
-254 257 -261 0
255 -256 975 976 979 0
-255 256 0
-255 -979 0
-255 -975 0
-255 -976 0
256 977 978 0
-256 -977 0
-256 -978 0
257 258 -919 0
257 -260 919 1040 0
-257 -258 -919 0
-257 260 919 0
-257 919 -1040 0
-65 258 -259 0
65 -258 0
-258 259 0
259 -1032 -1034 0
79 259 1032 0
259 -1032 -1038 0
-79 -259 1032 0
-259 -1032 1034 1038 0
-65 260 -1032 1034 0
-260 1032 0
-260 -1034 0
65 -260 0
255 261 800 0
-258 261 800 0
-261 -800 0
-255 258 -261 0
91 262 -800 0
-262 800 0
-91 -262 0
260 263 264 278 -280 0
-260 263 264 -278 -280 0
-263 280 0
260 -263 -278 0
-263 -264 0
-260 -263 278 0
264 265 -271 0
264 -265 271 0
-264 -265 -271 0
-264 265 271 0
-250 265 266 292 0
-250 265 266 -270 0
250 -265 0
-265 -266 0
-265 270 -292 0
249 266 269 0
266 267 269 0
-249 266 267 292 0
-249 -266 -267 0
249 -266 -269 0
-266 -269 -292 0
-27 267 -756 0
23 -27 267 268 0
27 -267 0
-267 -268 756 0
-23 -267 756 0
268 303 793 0
-268 -303 0
-268 -793 0
269 411 -794 0
-267 269 -411 0
267 -269 -411 0
-269 411 794 0
50 -269 270 0
-50 -270 0
269 -270 0
271 -275 800 0
91 271 -272 -275 0
-271 275 0
-271 272 -800 0
-91 -271 -800 0
272 919 -1070 0
272 -273 -919 0
-272 273 -919 0
-272 919 1070 0
-65 273 -1032 0
-65 79 273 274 0
65 -273 0
-273 -274 1032 0
-79 -273 1032 0
274 811 1069 0
-274 -811 0
-274 -1069 0
275 276 -277 0
-275 -276 0
-275 277 0
255 272 276 0
272 273 276 0
-255 273 276 800 0
-255 -273 -276 0
255 -272 -276 0
-272 -276 -800 0
85 103 277 0
85 102 277 0
-85 -277 0
-102 -103 -277 0
-243 -251 278 279 -553 0
251 -278 0
-278 -279 0
-278 553 0
243 -278 0
-50 279 -292 0
-279 292 0
50 -279 0
79 -277 280 -281 -283 0
-79 -280 0
-280 283 0
-280 281 0
277 -280 0
91 281 -282 0
281 -282 800 0
-281 282 0
-91 -281 -800 0
282 -803 -804 0
282 -802 805 0
282 -802 -804 0
282 -803 805 0
-282 804 -805 0
-282 802 803 0
-72 73 283 0
66 73 283 0
-73 -283 0
-66 72 -283 0
176 -206 284 0
186 -197 284 0
186 -206 284 0
176 -197 284 0
-176 -186 -284 0
197 206 -284 0
-10 -11 285 0
10 -285 0
11 -285 0
23 -253 286 287 -288 0
253 -286 0
-286 -287 0
-23 -286 0
-286 288 0
35 39 42 287 0
-35 -287 0
-42 -287 0
-39 -287 0
28 288 -289 292 0
28 50 288 -289 0
-288 289 0
-28 -288 0
-50 -288 -292 0
289 -290 -669 -698 -727 0
-289 290 0
-289 669 0
-289 727 0
-289 698 0
-13 290 -291 -553 -582 0
-290 291 0
-290 553 0
13 -290 0
-290 582 0
291 -295 -296 0
291 -294 297 0
291 -294 -296 0
291 -295 297 0
-291 296 -297 0
-291 294 295 0
1 2 0
-1 -2 0
1076 0

